NAME          ClpDefau  FREE
ROWS
 N  OBJROW
 L  ZMUNI1_PCT
 L  ZMUNI2_PCT
 L  ZMUNI3_PCT
 L  ZMUNI4_PCT
 L  ZMUNI5_PCT
 L  ZMUNI6_PCT
 L  ZMUNI7_PCT
 L  ZMUNI8_PCT
 L  ZMUNI9_PCT
COLUMNS
    QMUNI1 OBJROW 1.          
    QMUNI1 ZMUNI1_PCT 27463.88913 
    QMUNI1 ZMUNI2_PCT 1319.21768  
    QMUNI1 ZMUNI3_PCT 3855.51453  
    QMUNI1 ZMUNI4_PCT 2713.01269  
    QMUNI1 ZMUNI5_PCT  -241.47034 
    QMUNI1 ZMUNI6_PCT  -129.03214 
    QMUNI1 ZMUNI7_PCT 649.3568    
    QMUNI1 ZMUNI8_PCT 301.2657    
    QMUNI1 ZMUNI9_PCT  -576.16234 
    QMUNI2 OBJROW 1.          
    QMUNI2 ZMUNI1_PCT 1405.81131  
    QMUNI2 ZMUNI2_PCT 32250.49972 
    QMUNI2 ZMUNI3_PCT 2221.67969  
    QMUNI2 ZMUNI4_PCT 2388.73959  
    QMUNI2 ZMUNI5_PCT  -220.89481 
    QMUNI2 ZMUNI6_PCT  -204.84925 
    QMUNI2 ZMUNI7_PCT 23.9372     
    QMUNI2 ZMUNI8_PCT 171.2799    
    QMUNI2 ZMUNI9_PCT  -96.79794  
    QMUNI3 OBJROW 1.          
    QMUNI3 ZMUNI1_PCT 3885.96058  
    QMUNI3 ZMUNI2_PCT 2248.43025  
    QMUNI3 ZMUNI3_PCT 28887.5103  
    QMUNI3 ZMUNI4_PCT 4826.66492  
    QMUNI3 ZMUNI5_PCT  -185.27508 
    QMUNI3 ZMUNI6_PCT  -118.58941 
    QMUNI3 ZMUNI7_PCT 576.9729    
    QMUNI3 ZMUNI8_PCT 450.8018    
    QMUNI3 ZMUNI9_PCT  -322.86644 
    QMUNI4 OBJROW 1.          
    QMUNI4 ZMUNI1_PCT 2954.03004  
    QMUNI4 ZMUNI2_PCT 2610.54039  
    QMUNI4 ZMUNI3_PCT 5185.84252  
    QMUNI4 ZMUNI4_PCT 101098.17982
    QMUNI4 ZMUNI5_PCT  -274.96815 
    QMUNI4 ZMUNI6_PCT  -219.58352 
    QMUNI4 ZMUNI7_PCT 328.7315    
    QMUNI4 ZMUNI8_PCT 284.1949    
    QMUNI4 ZMUNI9_PCT  -280.38025 
    QMUNI5 OBJROW 1.          
    QMUNI5 ZMUNI1_PCT  -254.08268 
    QMUNI5 ZMUNI2_PCT  -387.28714 
    QMUNI5 ZMUNI3_PCT  -305.55725 
    QMUNI5 ZMUNI4_PCT  -284.02805 
    QMUNI5 ZMUNI5_PCT 30837.2736  
    QMUNI5 ZMUNI6_PCT 2317.69085  
    QMUNI5 ZMUNI7_PCT  -663.5666  
    QMUNI5 ZMUNI8_PCT  -897.8844  
    QMUNI5 ZMUNI9_PCT  -1140.21301
    QMUNI6 OBJROW 1.          
    QMUNI6 ZMUNI1_PCT 305.48573   
    QMUNI6 ZMUNI2_PCT 74.33891    
    QMUNI6 ZMUNI3_PCT 209.61762   
    QMUNI6 ZMUNI4_PCT 137.44831   
    QMUNI6 ZMUNI5_PCT 2906.77547  
    QMUNI6 ZMUNI6_PCT 30455.45816 
    QMUNI6 ZMUNI7_PCT 591.4688    
    QMUNI6 ZMUNI8_PCT 352.5734    
    QMUNI6 ZMUNI9_PCT 194.54956   
    QMUNI7 OBJROW 1.          
    QMUNI7 ZMUNI1_PCT 1148.41461  
    QMUNI7 ZMUNI2_PCT 489.33029   
    QMUNI7 ZMUNI3_PCT 952.10076   
    QMUNI7 ZMUNI4_PCT 682.18708   
    QMUNI7 ZMUNI5_PCT 166.91685   
    QMUNI7 ZMUNI6_PCT 300.81272   
    QMUNI7 ZMUNI7_PCT 25692.6536  
    QMUNI7 ZMUNI8_PCT 1538.7535   
    QMUNI7 ZMUNI9_PCT  -143.90946 
    QMUNI8 OBJROW 1.          
    QMUNI8 ZMUNI1_PCT 1050.13848  
    QMUNI8 ZMUNI2_PCT 844.00177   
    QMUNI8 ZMUNI3_PCT 1068.11524  
    QMUNI8 ZMUNI4_PCT 824.61834   
    QMUNI8 ZMUNI5_PCT 82.63588    
    QMUNI8 ZMUNI6_PCT 159.90734   
    QMUNI8 ZMUNI7_PCT 1841.259    
    QMUNI8 ZMUNI8_PCT 25019.9318  
    QMUNI8 ZMUNI9_PCT 719.83337   
    QMUNI9 OBJROW 1.          
    QMUNI9 ZMUNI1_PCT 158.88214   
    QMUNI9 ZMUNI2_PCT 475.07286   
    QMUNI9 ZMUNI3_PCT 260.01931   
    QMUNI9 ZMUNI4_PCT 234.22241   
    QMUNI9 ZMUNI5_PCT  -65.35053  
    QMUNI9 ZMUNI6_PCT  -107.59831 
    QMUNI9 ZMUNI7_PCT  -190.9256  
    QMUNI9 ZMUNI8_PCT 202.8465    
    QMUNI9 ZMUNI9_PCT 22892.33208 
RHS
    RHS ZMUNI1_PCT 0.6165018183
    RHS ZMUNI2_PCT 0.1769274493
    RHS ZMUNI3_PCT  -0.18676413
    RHS ZMUNI4_PCT 2.0993005526
    RHS ZMUNI5_PCT 0.9046646863
    RHS ZMUNI6_PCT 1.2791445344
    RHS ZMUNI7_PCT 1.5656408432
    RHS ZMUNI8_PCT 3.1503592676
    RHS ZMUNI9_PCT 6.2034233354
BOUNDS
 LO BOUND QMUNI1 -0.001279954
 UP BOUND QMUNI1      1.1e+10
 LO BOUND QMUNI2 -0.000935417
 UP BOUND QMUNI2      1.1e+10
 LO BOUND QMUNI3 -0.001010894
 UP BOUND QMUNI3      1.1e+10
 LO BOUND QMUNI4 -0.000328425
 UP BOUND QMUNI4      1.1e+10
 LO BOUND QMUNI5 -0.00088615 
 UP BOUND QMUNI5      1.1e+10
 LO BOUND QMUNI6 -0.001073506
 UP BOUND QMUNI6      1.1e+10
 LO BOUND QMUNI7 -0.000751193
 UP BOUND QMUNI7      1.1e+10
 LO BOUND QMUNI8 -0.00085354 
 UP BOUND QMUNI8      1.1e+10
 LO BOUND QMUNI9 -0.000983222
 UP BOUND QMUNI9      1.1e+10
ENDATA
